
--------------------------------------------------------------------------------------------------------

수업 시작.

jsp의 내장객체?
 - request
 - response
 - out
 - session
 - application


--------------------------------------------------------------------------------------------------------


  이 서블릿의 인스턴스가 생성될 때 , 서블릿의 초기화를 담당하는 메서드인 init()을 이용하면

  개발자가 이 서블릿의 원하는 정보를 전달할 수 있다. -> 필터와 동일 !! 




--------------------------------------------------------------------------------------------------------







--------------------------------------------------------------------------------------------------------








--------------------------------------------------------------------------------------------------------






--------------------------------------------------------------------------------------------------------






--------------------------------------------------------------------------------------------------------






--------------------------------------------------------------------------------------------------------







--------------------------------------------------------------------------------------------------------






--------------------------------------------------------------------------------------------------------






--------------------------------------------------------------------------------------------------------






--------------------------------------------------------------------------------------------------------







--------------------------------------------------------------------------------------------------------








--------------------------------------------------------------------------------------------------------







--------------------------------------------------------------------------------------------------------







--------------------------------------------------------------------------------------------------------






--------------------------------------------------------------------------------------------------------






--------------------------------------------------------------------------------------------------------






	
--------------------------------------------------------------------------------------------------------







--------------------------------------------------------------------------------------------------------





--------------------------------------------------------------------------------------------------------





--------------------------------------------------------------------------------------------------------




--------------------------------------------------------------------------------------------------------

